files/upTests/_mset/mset/0007.eprime.solution
language ESSENCE' 1.0
$ minion Nodes: 10
$ minion TotalTime: 0.005347
$ Savile Row TotalTime: 0.999
letting y_MSetOccurrence be [0, 1, 0, 1, 1;int(3..7)]
letting x_MSetExplicit be [4, 6, 7, 8, 9;int(1..5)]
letting x_MSetOccurrence be [1, 0, 1, 1, 1, 1;int(4..9)]
